
List of user-set options:

                                    Name   Value                used
                           compl_inf_tol = 1                     yes
                         constr_viol_tol = 1                     yes
                            dual_inf_tol = 1000                  yes
                           linear_solver = ma97                  yes
                              ma86_small = 1e-30                  no
                                  ma86_u = 0.0001                 no
                              ma97_order = best                  yes
                              ma97_small = 1e-30                 yes
                            ma97_switch1 = at_start              yes
                            ma97_switch2 = od_hd_reuse           yes
                                  ma97_u = 1e-06                 yes
                               ma97_umax = 0.5                   yes
                                max_iter = 1000                  yes
                    max_refinement_steps = 20                    yes
                    min_refinement_steps = 5                     yes
                                 mu_init = 1e-06                 yes
           mu_superlinear_decrease_power = 1.25                  yes
                   nlp_scaling_min_value = 1e-08                 yes
                        option_file_name = Preset_Case_290_pf.opt  yes
                             output_file = ./tmp/Preset_Case_290_pf.output  yes
                      print_user_options = yes                   yes
        required_infeasibility_reduction = 1                      no
                                     tol = 1e-08                 yes
                   warm_start_bound_frac = 1e-20                 yes
                   warm_start_bound_push = 1e-20                 yes
                   warm_start_init_point = yes                   yes
              warm_start_mult_bound_push = 1e-20                 yes
                warm_start_mult_init_max = 1e+40                 yes
             warm_start_slack_bound_frac = 1e-20                 yes
             warm_start_slack_bound_push = 1e-20                 yes

******************************************************************************
This program contains Ipopt, a library for large-scale nonlinear optimization.
 Ipopt is released as open source code under the Eclipse Public License (EPL).
         For more information visit http://projects.coin-or.org/Ipopt
******************************************************************************

This is Ipopt version 3.12.10, running with linear solver ma97.

Number of nonzeros in equality constraint Jacobian...:   123442
Number of nonzeros in inequality constraint Jacobian.:      213
Number of nonzeros in Lagrangian Hessian.............:    49069

Total number of variables............................:    31591
                     variables with only lower bounds:    12912
                variables with lower and upper bounds:    15130
                     variables with only upper bounds:        0
Total number of equality constraints.................:    31483
Total number of inequality constraints...............:       25
        inequality constraints with only lower bounds:        4
   inequality constraints with lower and upper bounds:        0
        inequality constraints with only upper bounds:       21

iter    objective    inf_pr   inf_du lg(mu)  ||d||  lg(rg) alpha_du alpha_pr  ls
   0 -5.1978051e+00 4.06e-03 1.02e+00  -6.0 0.00e+00    -  0.00e+00 0.00e+00   0
   1 -5.1973506e+00 9.12e+00 3.34e+01  -6.0 2.72e+05    -  1.26e-04 1.71e-03h  1
   2 -5.1973111e+00 9.12e+00 3.34e+01  -6.0 2.22e+03    -  1.18e-04 3.37e-05h  1
   3 -5.1972232e+00 9.12e+00 3.45e+01  -6.0 1.78e+04    -  8.95e-05 3.31e-05h  7
   4 -5.1971821e+00 9.12e+00 4.01e+01  -6.0 3.05e+03    -  7.51e-02 3.66e-05h  7
   5 -5.1971792e+00 9.12e+00 4.52e+01  -6.0 1.83e+05    -  2.10e-04 1.07e-06h  8
   6 -5.1965337e+00 9.11e+00 4.52e+01  -6.0 1.78e+04    -  2.43e-04 2.43e-04s 12
   7r-5.1965337e+00 9.11e+00 9.99e+02   1.0 0.00e+00    -  0.00e+00 0.00e+00R  1
   8r-5.2006468e+00 9.11e+00 2.38e+03   1.0 2.83e+06    -  1.13e-07 1.33e-08f  1
   9 -5.2006181e+00 9.11e+00 1.26e+03  -6.0 5.26e+02    -  8.02e-04 2.19e-05h  1
iter    objective    inf_pr   inf_du lg(mu)  ||d||  lg(rg) alpha_du alpha_pr  ls
  10 -5.1993181e+00 9.11e+00 3.73e+04  -6.0 6.98e+02    -  2.29e-05 6.61e-04h  1
  11 -5.1987020e+00 9.10e+00 3.73e+04  -6.0 3.58e+02    -  5.98e-04 3.63e-04h  1
  12 -5.1974806e+00 9.10e+00 3.73e+04  -6.0 3.69e+02    -  4.42e-04 7.38e-04h  1
  13 -5.1894960e+00 9.06e+00 3.71e+04  -6.0 3.64e+02    -  2.36e-04 4.51e-03h  2
  14 -5.1893180e+00 9.06e+00 3.71e+04  -6.0 3.62e+02    -  3.83e-04 9.64e-05h  7
  15 -5.1892579e+00 9.06e+00 3.71e+04  -6.0 3.55e+02    -  8.88e-05 3.07e-05h  9
  16 -5.1892179e+00 9.06e+00 3.71e+04  -6.0 3.20e+02    -  4.30e-03 1.67e-05h 10
  17r-5.1892179e+00 9.06e+00 9.99e+02   1.0 0.00e+00    -  0.00e+00 2.64e-07R 18
  18r-5.1876767e+00 9.06e+00 7.27e+04   1.0 7.72e+04    -  6.75e-08 2.12e-08f  1
  19 -5.1876533e+00 9.06e+00 1.82e+05  -6.0 3.72e+02    -  2.31e-03 1.31e-05h  1
iter    objective    inf_pr   inf_du lg(mu)  ||d||  lg(rg) alpha_du alpha_pr  ls
  20 -5.1811001e+00 9.03e+00 4.16e+07  -6.0 3.54e+02    -  1.44e-05 3.26e-03h  1
  21 -5.1722963e+00 8.99e+00 4.14e+07  -6.0 3.40e+02    -  2.18e-03 4.02e-03h  1
  22 -5.1379171e+00 8.86e+00 4.08e+07  -6.0 3.26e+02    -  8.80e-03 1.46e-02h  1
  23 -5.0593032e+00 8.56e+00 3.94e+07  -6.0 3.23e+02    -  2.38e-02 3.39e-02h  1
  24 -4.9743076e+00 8.24e+00 3.80e+07  -6.0 3.14e+02    -  6.38e-02 3.73e-02h  1
  25 -4.8646600e+00 7.85e+00 3.62e+07  -6.0 3.00e+02    -  6.84e-02 4.76e-02h  1
  26 -4.7884223e+00 7.59e+00 3.50e+07  -6.0 2.86e+02    -  1.50e-01 3.35e-02h  1
  27 -4.4948065e+00 6.66e+00 3.06e+07  -6.0 2.69e+02    -  1.52e-02 1.24e-01h  1
  28 -4.3541026e+00 6.17e+00 2.84e+07  -6.0 2.65e+02    -  9.22e-03 7.39e-02h  1
  29 -3.4287915e+00 2.92e+00 1.26e+07  -6.0 2.63e+02    -  5.03e-02 5.57e-01h  1
iter    objective    inf_pr   inf_du lg(mu)  ||d||  lg(rg) alpha_du alpha_pr  ls
  30 -3.3981736e+00 2.14e+00 9.18e+06  -6.0 2.04e+02    -  1.13e-01 2.70e-01h  1
  31 -3.4926069e+00 1.13e+00 3.93e+06  -6.0 1.43e+02    -  1.79e-01 5.72e-01h  1
  32 -3.5410028e+00 9.82e-01 3.39e+06  -6.0 1.81e+01    -  6.68e-01 1.36e-01h  1
  33 -4.1041599e+00 5.90e+00 1.84e+06  -6.0 9.39e+01    -  1.01e-06 4.58e-01h  1
  34 -4.1859261e+00 4.85e+00 1.52e+06  -6.0 3.43e+01    -  8.11e-02 1.73e-01h  1
  35 -4.3724264e+00 3.68e+00 1.13e+06  -6.0 3.67e+01    -  3.07e-01 2.54e-01h  1
  36 -4.8652808e+00 1.54e+00 5.19e+05  -6.0 4.03e+01    -  2.22e-01 5.43e-01h  1
  37 -4.8832496e+00 1.51e+00 5.09e+05  -6.0 4.92e+01    -  1.92e-01 1.86e-02h  1
  38 -5.0984687e+00 1.12e+00 3.81e+05  -6.0 4.98e+01    -  9.01e-02 2.50e-01h  1
  39 -5.1098067e+00 1.05e+00 3.86e+05  -6.0 6.54e+01    -  2.52e-03 6.77e-02h  1
iter    objective    inf_pr   inf_du lg(mu)  ||d||  lg(rg) alpha_du alpha_pr  ls
  40 -5.1269832e+00 1.02e+00 3.91e+05  -6.0 4.61e+01    -  4.69e-02 2.65e-02h  1
  41 -5.1911832e+00 8.65e-01 1.64e+06  -6.0 6.16e+01    -  4.74e-01 1.75e-01h  1
  42 -5.2974341e+00 6.76e-01 1.65e+07  -6.0 1.09e+02    -  1.62e-01 2.56e-01h  1
  43 -5.3892056e+00 5.73e-01 5.74e+06  -6.0 1.06e+02    -  1.35e-01 1.70e-01h  1
  44 -5.3878671e+00 5.25e-01 1.90e+06  -6.0 7.13e+01    -  1.61e-01 8.71e-02h  1
  45 -5.3893230e+00 4.27e-01 1.14e+07  -6.0 5.68e+01    -  6.55e-02 1.89e-01h  1
  46 -5.3854442e+00 3.91e-01 1.04e+07  -6.0 5.78e+01    -  2.59e-02 8.75e-02h  1
  47 -5.3781261e+00 3.47e-01 9.07e+06  -6.0 6.27e+01    -  1.90e-02 1.14e-01h  1
  48 -5.3869835e+00 2.33e-01 5.63e+06  -6.0 8.85e+01    -  2.84e-02 3.32e-01h  1
  49 -5.4306572e+00 2.24e-01 6.54e+06  -6.0 1.19e+02    -  1.21e-01 9.09e-01h  1
iter    objective    inf_pr   inf_du lg(mu)  ||d||  lg(rg) alpha_du alpha_pr  ls
  50 -5.4389184e+00 1.94e-01 5.34e+06  -6.0 5.04e+01    -  5.68e-01 1.36e-01h  1
  51 -5.4871161e+00 3.33e-01 2.20e+06  -6.0 1.09e+02    -  1.45e-01 5.43e-01h  1
  52 -5.5397020e+00 1.06e+00 2.88e+05  -6.0 9.64e+01    -  8.05e-01 1.00e+00f  1
  53 -5.5602994e+00 4.44e-01 8.13e+04  -6.0 2.31e+02    -  7.54e-01 5.99e-01h  1
  54 -5.5765962e+00 4.40e-01 5.23e+04  -6.0 4.39e+02    -  4.39e-01 3.58e-01h  1
  55 -5.6167104e+00 6.38e+00 1.21e+05  -6.0 7.26e+02    -  2.24e-01 1.00e+00h  1
  56 -5.6253856e+00 4.86e+00 3.69e+04  -6.0 7.00e+02    -  4.33e-01 3.72e-01h  1
  57 -5.6266555e+00 4.75e+00 4.32e+05  -6.0 1.17e+03    -  2.51e-01 2.48e-02h  1
  58 -5.6267328e+00 4.75e+00 1.15e+05  -6.0 1.51e+03    -  2.09e-01 1.45e-03h  1
  59 -5.6505440e+00 5.63e+00 5.51e+08  -6.0 3.66e+03    -  2.08e-04 1.74e-01h  1
iter    objective    inf_pr   inf_du lg(mu)  ||d||  lg(rg) alpha_du alpha_pr  ls
  60 -5.6516842e+00 5.56e+00 5.42e+08  -6.0 2.10e+03    -  4.89e-03 1.68e-02h  1
  61 -5.6538566e+00 5.50e+00 5.36e+08  -6.0 1.88e+03    -  6.92e-03 1.04e-02h  1
  62 -5.6956590e+00 1.83e+01 2.23e+08  -6.0 1.92e+03    -  2.54e-02 5.84e-01h  1
  63 -5.6949609e+00 1.62e+01 1.93e+08  -6.0 1.24e+03    -  3.68e-01 1.35e-01h  1
  64 -5.6959362e+00 1.61e+01 1.17e+08  -6.0 1.73e+03    -  5.79e-01 3.93e-01h  1
  65 -5.6967780e+00 1.51e+01 1.07e+08  -6.0 3.71e+03    -  1.71e-01 8.87e-02h  1
  66 -5.6977283e+00 1.39e+01 9.49e+07  -6.0 1.75e+03    -  4.41e-01 1.10e-01h  1
  67 -5.7019387e+00 2.29e+01 6.19e+07  -6.0 2.72e+03    -  7.38e-01 3.48e-01h  1
  68 -5.7054512e+00 3.77e+01 4.82e+07  -6.0 4.38e+03    -  3.04e-02 2.21e-01h  1
  69 -5.7092007e+00 2.35e+01 2.73e+07  -6.0 2.15e+03    -  8.17e-02 4.36e-01h  1
iter    objective    inf_pr   inf_du lg(mu)  ||d||  lg(rg) alpha_du alpha_pr  ls
  70 -5.7081405e+00 2.22e+01 2.57e+07  -6.0 9.89e+01  -4.0 5.77e-04 5.79e-02h  1
  71 -5.7033603e+00 1.04e-02 1.22e+05  -6.0 4.29e+00  -4.5 3.44e-01 1.00e+00h  1
  72 -5.7044092e+00 5.75e-03 1.33e+03  -6.0 7.84e+00  -5.0 9.79e-01 1.00e+00h  1
  73 -5.7090166e+00 2.62e-02 8.78e+01  -6.0 1.91e+01  -5.4 1.52e-01 1.00e+00h  1
  74 -5.7173642e+00 7.54e-02 1.58e+01  -6.0 4.16e+01  -5.9 1.00e+00 1.00e+00h  1
  75 -5.7227314e+00 1.89e-01 1.37e+01  -6.0 6.60e+01  -6.4 7.21e-01 1.00e+00h  1
  76 -5.7307957e+00 3.38e-01 1.01e+01  -6.0 1.74e+02  -6.9 1.00e+00 6.09e-01h  1
  77 -5.7416921e+00 1.22e+00 8.02e+01  -6.0 1.63e+03  -7.3 1.69e-01 1.10e-01h  1
  78 -5.7457024e+00 8.46e-01 1.21e+05  -6.0 9.86e+01  -7.8 6.81e-01 3.10e-01h  1
  79 -5.7577019e+00 9.34e-01 1.53e+05  -6.0 3.19e+02  -8.3 5.86e-01 3.75e-01h  1
iter    objective    inf_pr   inf_du lg(mu)  ||d||  lg(rg) alpha_du alpha_pr  ls
  80 -5.7740009e+00 2.88e+00 1.09e+05  -6.0 6.71e+02  -8.8 6.13e-01 5.54e-01h  1
  81 -5.7834683e+00 4.39e+00 2.37e+05  -6.0 1.36e+03  -9.2 9.35e-02 2.48e-01h  1
  82r-5.7834683e+00 4.39e+00 1.00e+03   0.6 0.00e+00  -9.7 0.00e+00 1.23e-07R  2
  83r-5.8067439e+00 4.39e+00 1.00e+03   0.6 2.12e+04    -  1.75e-06 5.22e-07f  1
  84 -5.8061698e+00 4.29e+00 4.26e+03  -6.0 1.90e+01    -  5.58e-06 2.37e-02h  1
  85 -5.8031636e+00 3.75e+00 3.72e+03  -6.0 1.85e+01    -  1.34e-01 1.26e-01h  1
  86 -5.7998932e+00 3.17e+00 3.15e+03  -6.0 1.59e+01    -  1.75e-01 1.54e-01h  1
  87 -5.7912758e+00 1.66e+00 1.65e+03  -6.0 1.32e+01    -  8.35e-01 4.75e-01h  1
  88 -5.7817998e+00 5.98e-04 1.81e+01  -6.0 4.57e+00    -  9.29e-01 1.00e+00h  1
  89 -5.7830512e+00 1.35e-03 6.07e+00  -6.0 5.25e+00    -  9.02e-01 1.00e+00h  1
iter    objective    inf_pr   inf_du lg(mu)  ||d||  lg(rg) alpha_du alpha_pr  ls
  90 -5.7848212e+00 8.11e-02 1.23e+00  -6.0 3.29e+01    -  7.94e-01 1.00e+00h  1
  91 -5.7879572e+00 6.05e-01 1.66e+00  -6.0 6.67e+01    -  8.84e-01 7.07e-01h  1
  92 -5.7940832e+00 1.14e+00 2.69e+00  -6.0 2.91e+02    -  9.07e-01 8.33e-01h  1
  93 -5.7975451e+00 1.18e+00 2.53e+01  -6.0 1.09e+03    -  6.47e-01 2.00e-01h  1
  94 -5.7978799e+00 2.27e+00 4.13e+02  -6.0 7.53e+03    -  2.10e-02 3.00e-02h  4
  95 -5.7979479e+00 2.54e+00 4.28e+02  -6.0 8.66e+03    -  2.51e-02 1.35e-02h  5
  96 -5.7979830e+00 2.66e+00 4.43e+02  -6.0 1.13e+04 -10.2 2.09e-02 7.02e-03h  6
  97 -5.7979747e+00 9.16e-01 3.50e+02  -6.0 2.14e+03  -9.8 3.81e-02 4.11e-02H  1
  98 -5.7981998e+00 3.38e+00 3.50e+02  -6.0 8.37e+03    -  2.22e-03 5.23e-02h  3
  99 -5.7993254e+00 1.47e+02 2.94e+02  -6.0 1.02e+04 -10.3 1.28e-01 2.53e-01h  1
iter    objective    inf_pr   inf_du lg(mu)  ||d||  lg(rg) alpha_du alpha_pr  ls
 100 -5.7997169e+00 1.08e+02 7.43e+05  -6.0 4.99e+03    -  6.67e-02 3.63e-01h  1
 101 -5.7997276e+00 1.07e+02 7.39e+05  -6.0 2.27e+02  -7.1 6.45e-03 4.75e-03h  1
 102 -5.7996984e+00 1.06e+02 7.57e+05  -6.0 3.22e+02  -7.6 2.91e-02 6.89e-03h  1
 103 -5.7997285e+00 1.06e+02 7.42e+05  -6.0 4.07e+03  -8.1 1.65e-02 6.06e-03h  1
 104 -5.7997269e+00 1.00e+02 6.95e+05  -6.0 1.26e+02  -7.6 3.41e-02 5.44e-02h  1
 105 -5.7999622e+00 3.99e+01 1.64e+05  -6.0 5.97e+02  -8.1 1.57e-01 6.20e-01h  1
 106 -5.7998793e+00 3.75e+01 1.89e+05  -6.0 1.40e+03    -  2.88e-01 6.19e-02h  1
 107 -5.7995053e+00 3.26e+01 1.40e+05  -6.0 1.82e+03    -  8.28e-02 1.97e-01h  2
 108 -5.7991341e+00 2.39e+01 1.20e+05  -6.0 2.89e+02  -8.6 5.45e-01 2.69e-01h  1
 109 -5.7991453e+00 2.30e+01 1.15e+05  -6.0 7.18e+02  -9.1 2.11e-02 3.86e-02h  1
iter    objective    inf_pr   inf_du lg(mu)  ||d||  lg(rg) alpha_du alpha_pr  ls
 110 -5.7991283e+00 2.26e+01 1.14e+05  -6.0 2.47e+03  -9.6 3.68e-02 1.88e-02h  1
 111 -5.7991257e+00 2.26e+01 1.15e+05  -6.0 1.40e+05 -10.0 3.69e-03 7.30e-05h  8
 112 -5.7990340e+00 2.17e+01 1.10e+05  -6.0 2.67e+03  -9.6 1.02e-01 6.14e-02h  1
 113 -5.7984414e+00 1.82e+01 8.97e+04  -6.0 1.38e+03  -9.2 4.33e-02 1.64e-01h  1
 114 -5.7985391e+00 1.97e+01 8.83e+04  -6.0 3.35e+05    -  2.16e-03 8.26e-04h  3
 115 -5.7985913e+00 2.17e+01 8.58e+04  -6.0 4.81e+04    -  2.89e-02 7.05e-03h  3
 116 -5.7985180e+00 2.27e+01 8.42e+04  -6.0 1.35e+04    -  7.19e-02 1.99e-02h  1
 117 -5.7984534e+00 2.25e+01 8.43e+04  -6.0 2.21e+04    -  4.87e-02 8.63e-03h  3
 118 -5.7984462e+00 2.25e+01 8.49e+04  -6.0 1.56e+04    -  3.27e-02 8.23e-04h  7
 119r-5.7984462e+00 2.25e+01 1.00e+03   1.3 0.00e+00    -  0.00e+00 7.32e-08R 11
iter    objective    inf_pr   inf_du lg(mu)  ||d||  lg(rg) alpha_du alpha_pr  ls
 120r-5.8164644e+00 2.25e+01 1.00e+03   1.3 9.85e+04    -  1.98e-07 1.15e-07f  1
 121 -5.8164602e+00 2.25e+01 1.01e+02  -6.0 4.38e+02    -  2.54e-06 2.37e-04h  1
 122 -5.8159179e+00 2.17e+01 1.46e+02  -6.0 4.28e+02    -  5.42e-03 3.20e-02h  1
 123 -5.8157231e+00 2.15e+01 1.50e+02  -6.0 5.87e+01    -  3.37e-02 1.10e-02h  1
 124 -5.8135548e+00 1.88e+01 6.30e+02  -6.0 1.29e+01    -  6.25e-02 1.24e-01h  1
 125 -5.8123892e+00 1.74e+01 4.64e+02  -6.0 1.41e+01    -  1.41e-01 7.52e-02h  1
 126 -5.8108169e+00 1.56e+01 1.58e+02  -6.0 1.31e+01    -  1.53e-01 1.07e-01h  1
 127 -5.8105653e+00 1.53e+01 1.52e+02  -6.0 1.12e+01    -  1.52e-01 1.88e-02h  1
 128 -5.8076125e+00 1.20e+01 4.62e+02  -6.0 1.15e+01    -  1.38e-01 2.16e-01h  1
 129 -5.7953918e+00 4.65e-01 5.20e+03  -6.0 9.49e+00    -  3.76e-01 9.62e-01h  1
iter    objective    inf_pr   inf_du lg(mu)  ||d||  lg(rg) alpha_du alpha_pr  ls
 130 -5.7951574e+00 4.37e-01 4.89e+03  -6.0 1.09e+00    -  2.24e-01 5.99e-02h  1
 131 -5.7938217e+00 2.40e-01 2.73e+03  -6.0 1.08e+00    -  1.12e-01 4.50e-01h  1
 132 -5.7933756e+00 1.29e-01 1.47e+03  -6.0 1.15e+00    -  4.31e-01 4.64e-01h  1
 133 -5.7945076e+00 1.34e-04 2.85e+01  -6.0 2.30e+00    -  9.54e-01 1.00e+00h  1
 134 -5.7987070e+00 1.08e-03 8.32e+00  -6.0 5.39e+00    -  8.92e-01 1.00e+00h  1
 135 -5.7982011e+00 2.55e-03 9.13e+01  -6.0 1.57e+01    -  1.05e-01 5.64e-01H  1
 136 -5.7980090e+00 8.84e-04 1.52e+02  -6.0 7.18e+00    -  7.68e-01 1.00e+00H  1
 137 -5.7991324e+00 2.23e-02 8.92e+00  -6.0 2.58e+01    -  7.48e-01 1.00e+00h  1
 138 -5.7991165e+00 2.36e-01 5.70e+00  -6.0 6.16e+01    -  5.86e-01 1.00e+00h  1
 139 -5.7992315e+00 3.14e-01 1.23e+00  -6.0 1.30e+02    -  9.63e-01 1.00e+00h  1
iter    objective    inf_pr   inf_du lg(mu)  ||d||  lg(rg) alpha_du alpha_pr  ls
 140 -5.7992461e+00 3.10e-01 4.80e-01  -6.0 3.66e+01  -7.9 9.99e-01 1.00e+00h  1
 141 -5.7993052e+00 4.01e-01 9.74e-02  -6.0 1.01e+02  -8.3 1.00e+00 1.00e+00h  1
 142 -5.7994801e+00 5.64e+00 2.44e+01  -6.0 4.13e+03    -  3.96e-01 1.35e-01h  1
 143 -5.7995158e+00 5.85e+00 1.26e+02  -6.0 3.81e+03    -  1.00e+00 4.27e-02h  1
 144 -5.7997038e+00 1.59e+01 6.59e+01  -6.0 3.00e+03    -  3.79e-01 3.72e-01H  1
 145 -5.7998254e+00 1.89e+01 3.13e+01  -6.0 1.83e+03    -  4.88e-01 4.27e-01h  1
 146 -5.7998515e+00 8.54e+00 1.85e+01  -6.0 8.32e+02    -  1.00e+00 6.69e-01h  1
 147 -5.7998158e+00 7.66e+00 1.38e+01  -6.0 1.50e+03    -  1.20e-01 3.00e-01h  1
 148 -5.7997506e+00 1.23e+00 6.16e-01  -6.0 2.60e+02    -  1.00e+00 1.00e+00h  1
 149 -5.7997418e+00 5.75e-03 2.32e-03  -6.0 1.69e+01    -  1.00e+00 1.00e+00h  1
iter    objective    inf_pr   inf_du lg(mu)  ||d||  lg(rg) alpha_du alpha_pr  ls
 150 -5.7997417e+00 3.38e-06 1.87e-06  -6.0 4.35e-01    -  1.00e+00 1.00e+00h  1
 151 -5.7999259e+00 4.84e+00 8.35e+01  -7.5 7.64e+02    -  4.47e-01 7.35e-01h  1
 152 -5.7999172e+00 1.59e+00 2.38e+00  -7.5 2.55e+02    -  8.97e-01 8.17e-01h  1
 153 -5.7999064e+00 6.49e-02 6.46e-02  -7.5 6.23e+01    -  1.00e+00 1.00e+00h  1
 154 -5.7999059e+00 1.31e-05 3.79e-06  -7.5 9.73e-01    -  1.00e+00 1.00e+00h  1
 155 -5.7999059e+00 2.89e-10 1.73e-11  -7.5 1.39e-04    -  1.00e+00 1.00e+00h  1
 156 -5.7999076e+00 8.72e-03 9.47e-01  -9.0 2.83e+01    -  9.29e-01 8.26e-01h  1
 157 -5.7999078e+00 3.99e-04 3.03e-01  -9.0 4.99e+00    -  9.34e-01 1.00e+00h  1
 158 -5.7999078e+00 4.66e-10 4.13e-09  -9.0 5.79e-03    -  1.00e+00 1.00e+00h  1

Number of Iterations....: 158

                                   (scaled)                 (unscaled)
Objective...............:  -4.5311779573465119e+00   -5.7999077854035352e+00
Dual infeasibility......:   4.1326860297252785e-09    5.2898381180483566e-09
Constraint violation....:   3.8268728092258140e-10    4.6566128730773926e-10
Complementarity.........:   1.2909733860435148e-09    1.6524459341356990e-09
Overall NLP error.......:   4.1326860297252785e-09    5.2898381180483566e-09


Number of objective function evaluations             = 302
Number of objective gradient evaluations             = 159
Number of equality constraint evaluations            = 302
Number of inequality constraint evaluations          = 302
Number of equality constraint Jacobian evaluations   = 163
Number of inequality constraint Jacobian evaluations = 163
Number of Lagrangian Hessian evaluations             = 158
Total CPU secs in IPOPT (w/o function evaluations)   =    410.537
Total CPU secs in NLP function evaluations           =     11.386

EXIT: Optimal Solution Found.
